1 1 -2 0
1 1 -3 0
1 1 -4 0
1 1 -5 0
1 1 -6 0
1 -2 7 0
1 -2 8 0
1 2 3 0
1 -2 1 0
1 -2 -4 0
1 -2 6 0
1 9 10 0
1 -9 11 0
1 9 12 0
1 -9 -13 0
1 9 4 0
1 -9 6 0
1 11 -10 0
1 11 -14 0
1 -11 12 0
1 11 13 0
1 -11 -9 0
1 -3 15 0
1 3 16 0
1 -3 17 0
1 3 11 0
1 -3 18 0
1 3 19 0
1 -3 20 0
1 -3 9 0
1 -3 6 0
1 6 21 0
1 -6 17 0
1 -6 -11 0
1 6 -2 0
1 6 19 0
1 -6 20 0
1 -6 -1 0
1 8 -22 0
1 8 -2 0
1 8 -19 0
1 8 23 0
1 -8 9 0
1 8 -4 0
1 -4 -15 0
1 -4 2 0
1 4 24 0
1 25 -14 0
1 25 17 0
1 25 -12 0
1 25 -13 0
1 -25 -23 0
1 -25 -6 0
1 -17 10 0
1 -17 -14 0
1 -17 -22 0
1 17 -13 0
1 -17 -25 0
1 -20 -10 0
1 -20 14 0
1 20 16 0
1 -20 3 0
1 20 -26 0
1 20 -24 0
1 20 27 0
1 -16 -14 0
1 16 -28 0
1 16 -29 0
1 -16 -12 0
1 -16 -13 0
1 -16 20 0
1 -16 26 0
1 -16 -6 0
1 -13 -14 0
1 13 -16 0
1 -13 17 0
1 13 -11 0
1 13 -30 0
1 13 -31 0
1 13 20 0
1 -13 9 0
1 13 -32 0
1 -14 -33 0
1 -14 34 0
1 14 -35 0
1 -14 -16 0
1 14 17 0
1 14 11 0
1 14 36 0
1 -14 20 0
1 -14 25 0
1 -14 -9 0
1 -14 32 0
1 12 -10 0
1 -12 37 0
1 12 17 0
1 -12 11 0
1 12 -38 0
1 -12 -39 0
1 -12 25 0
1 -10 37 0
1 -10 40 0
1 10 15 0
1 -10 17 0
1 -10 11 0
1 -10 -38 0
1 -10 12 0
1 10 -41 0
1 -10 19 0
1 -10 20 0
1 -10 25 0
1 -10 9 0
1 10 32 0
1 -30 -34 0
1 30 -14 0
1 30 28 0
1 30 29 0
1 30 19 0
1 -30 27 0
1 -34 -14 0
1 34 15 0
1 34 28 0
1 -34 29 0
1 34 27 0
1 36 33 0
1 36 14 0
1 36 28 0
1 36 -29 0
1 -36 -13 0
1 -36 -26 0
1 33 14 0
1 -33 28 0
1 -33 -29 0
1 33 -36 0
1 -33 26 0
1 -33 27 0
1 -27 33 0
1 27 -34 0
1 27 -16 0
1 27 -29 0
1 27 42 0
1 -27 36 0
1 27 -20 0
1 27 -43 0
1 -27 44 0
1 -29 -30 0
1 -29 -20 0
1 29 27 0
1 29 -44 0
1 26 -33 0
1 26 28 0
1 26 42 0
1 -26 45 0
1 -26 36 0
1 -26 30 0
1 26 -46 0
1 -26 44 0
1 -26 -47 0
1 26 32 0
1 -28 -33 0
1 28 34 0
1 28 48 0
1 28 42 0
1 28 -45 0
1 28 36 0
1 -28 -30 0
1 -28 -20 0
1 28 44 0
1 28 47 0
1 28 32 0
1 -5 49 0
1 5 50 0
1 -5 7 0
1 -5 -51 0
1 -5 -1 0
1 -7 2 0
1 -7 52 0
1 -7 51 0
1 7 5 0
1 -53 -54 0
1 53 52 0
1 -53 -51 0
1 53 -55 0
1 -53 -56 0
1 -54 -50 0
1 -54 57 0
1 54 -58 0
1 -54 11 0
1 54 52 0
1 -54 -51 0
1 50 59 0
1 -50 -60 0
1 -50 -22 0
1 50 -54 0
1 50 -7 0
1 50 51 0
1 -50 -24 0
1 -50 23 0
1 -50 -53 0
1 -51 61 0
1 -51 -59 0
1 51 22 0
1 51 -7 0
1 -51 62 0
1 -51 63 0
1 51 -24 0
1 51 -53 0
1 -49 61 0
1 -49 64 0
1 49 -54 0
1 -49 -7 0
1 -49 -65 0
1 49 53 0
1 49 5 0
1 52 -49 0
1 52 -54 0
1 52 66 0
1 52 65 0
1 52 -53 0
1 52 5 0
1 23 50 0
1 -23 -57 0
1 23 58 0
1 -23 8 0
1 -23 -51 0
1 -23 67 0
1 23 55 0
1 -23 -25 0
1 -23 68 0
1 -23 4 0
1 -22 -17 0
1 -22 -58 0
1 22 64 0
1 22 8 0
1 22 51 0
1 22 23 0
1 -24 -59 0
1 -24 -57 0
1 -24 -69 0
1 -24 -51 0
1 -24 20 0
1 24 55 0
1 -24 65 0
1 -24 -70 0
1 59 -55 0
1 59 -50 0
1 59 -57 0
1 59 -71 0
1 59 58 0
1 -59 72 0
1 -59 -69 0
1 59 8 0
1 59 -51 0
1 59 -67 0
1 59 24 0
1 59 -73 0
1 59 -70 0
1 -59 -4 0
1 58 -55 0
1 -58 -37 0
1 58 -15 0
1 58 22 0
1 58 74 0
1 58 54 0
1 -58 75 0
1 -58 24 0
1 -58 23 0
1 -58 53 0
1 -55 -37 0
1 55 59 0
1 55 -54 0
1 -55 -41 0
1 55 19 0
1 55 -24 0
1 -55 -76 0
1 -55 53 0
1 -57 77 0
1 57 61 0
1 -57 -59 0
1 -57 -78 0
1 57 22 0
1 -57 54 0
1 57 75 0
1 57 79 0
1 -57 67 0
1 57 63 0
1 -57 24 0
1 -57 -23 0
1 57 -53 0
1 67 77 0
1 -67 -80 0
1 67 22 0
1 -67 -54 0
1 67 75 0
1 -67 79 0
1 -67 -63 0
1 67 24 0
1 -67 -81 0
1 -67 23 0
1 -67 53 0
1 19 -58 0
1 19 69 0
1 -19 -8 0
1 19 3 0
1 -19 -12 0
1 19 -30 0
1 -19 63 0
1 19 55 0
1 -19 73 0
1 -19 70 0
1 19 6 0
1 15 10 0
1 -15 34 0
1 15 61 0
1 -15 -72 0
1 -15 69 0
1 15 -8 0
1 15 12 0
1 -15 19 0
1 -15 -55 0
1 -15 -73 0
1 -15 4 0
1 -15 -6 0
1 -41 -21 0
1 41 37 0
1 41 -58 0
1 -41 69 0
1 41 -36 0
1 41 -79 0
1 41 55 0
1 41 73 0
1 41 -70 0
1 -41 -82 0
1 -37 -33 0
1 37 -10 0
1 -37 58 0
1 37 72 0
1 -37 83 0
1 -37 18 0
1 -37 12 0
1 37 -41 0
1 37 -55 0
1 -37 -70 0
1 69 -37 0
1 -69 15 0
1 69 -59 0
1 -69 -84 0
1 69 -45 0
1 69 38 0
1 69 -41 0
1 -69 -19 0
1 -69 -24 0
1 69 -70 0
1 -69 -85 0
1 -69 32 0
1 -70 -37 0
1 70 15 0
1 -70 -59 0
1 -70 69 0
1 70 84 0
1 70 45 0
1 -70 -38 0
1 70 -86 0
1 -70 -41 0
1 -70 -19 0
1 70 24 0
1 -70 -85 0
1 70 47 0
1 -70 -32 0
1 -72 37 0
1 72 -84 0
1 72 -87 0
1 -72 19 0
1 72 -24 0
1 -72 -73 0
1 -72 -88 0
1 -73 -77 0
1 73 -37 0
1 -73 -15 0
1 73 59 0
1 -73 72 0
1 -73 84 0
1 -73 87 0
1 -73 -41 0
1 -73 -19 0
1 73 -24 0
1 73 85 0
1 -38 21 0
1 -38 10 0
1 38 -83 0
1 38 75 0
1 38 -12 0
1 -38 -18 0
1 -38 -13 0
1 38 82 0
1 38 -32 0
1 32 -10 0
1 -32 21 0
1 -32 -38 0
1 -32 -18 0
1 32 -12 0
1 -32 -13 0
1 -32 -26 0
1 32 -82 0
1 45 -21 0
1 45 40 0
1 45 28 0
1 -45 87 0
1 -45 18 0
1 45 -39 0
1 45 -31 0
1 -45 -26 0
1 -45 70 0
1 -45 -47 0
1 45 -82 0
1 47 -40 0
1 -47 35 0
1 -47 28 0
1 -47 -69 0
1 47 45 0
1 -47 -83 0
1 -47 18 0
1 -47 -39 0
1 47 -31 0
1 47 82 0
1 47 -70 0
1 47 88 0
1 -18 -21 0
1 18 -37 0
1 -18 89 0
1 -18 90 0
1 -18 42 0
1 -18 -45 0
1 18 38 0
1 -18 3 0
1 18 91 0
1 -18 41 0
1 18 -92 0
1 -18 93 0
1 -18 -44 0
1 -18 -47 0
1 -18 32 0
1 21 -94 0
1 21 -89 0
1 -21 42 0
1 -21 45 0
1 -21 18 0
1 -21 -41 0
1 21 -92 0
1 21 93 0
1 -21 -44 0
1 -21 -47 0
1 -21 32 0
1 -83 -37 0
1 83 95 0
1 83 84 0
1 -83 8 0
1 -83 -38 0
1 -83 96 0
1 83 -41 0
1 -83 -92 0
1 83 47 0
1 -83 -82 0
1 83 32 0
1 82 37 0
1 -82 95 0
1 -82 45 0
1 82 83 0
1 82 -38 0
1 -82 4 0
1 -82 -92 0
1 -82 -97 0
1 -82 -85 0
1 82 47 0
1 -82 -98 0
1 42 -40 0
1 42 28 0
1 42 -35 0
1 42 84 0
1 -42 -18 0
1 42 -39 0
1 42 -31 0
1 42 -26 0
1 42 -27 0
1 42 -44 0
1 44 40 0
1 -44 -35 0
1 44 28 0
1 44 39 0
1 44 -31 0
1 -44 -27 0
1 -44 85 0
1 90 40 0
1 -90 -35 0
1 90 48 0
1 90 -99 0
1 -90 95 0
1 90 -18 0
1 -90 39 0
1 90 -31 0
1 90 46 0
1 90 -43 0
1 93 21 0
1 93 -40 0
1 93 -48 0
1 -93 90 0
1 93 31 0
1 -93 -46 0
1 -93 -43 0
1 -31 100 0
1 31 90 0
1 31 -42 0
1 -31 101 0
1 31 13 0
1 -31 -102 0
1 31 103 0
1 31 93 0
1 31 44 0
1 -35 14 0
1 -35 -104 0
1 -35 -105 0
1 -35 -100 0
1 -35 -90 0
1 35 -101 0
1 -35 -102 0
1 35 -103 0
1 -35 -93 0
1 -35 47 0
1 -39 -106 0
1 -39 -89 0
1 -39 12 0
1 -39 -101 0
1 -39 107 0
1 39 -92 0
1 39 -93 0
1 40 10 0
1 -40 -108 0
1 40 104 0
1 40 90 0
1 -40 42 0
1 40 45 0
1 -40 -101 0
1 40 107 0
1 -40 -92 0
1 40 93 0
1 -40 -44 0
1 100 -89 0
1 -100 -46 0
1 -100 31 0
1 100 -103 0
1 100 43 0
1 -103 -35 0
1 -103 48 0
1 103 -100 0
1 -103 99 0
1 -103 -92 0
1 -103 -43 0
1 105 -35 0
1 -105 102 0
1 105 46 0
1 -102 35 0
1 102 -105 0
1 -102 -48 0
1 102 99 0
1 -102 31 0
1 -102 -107 0
1 102 46 0
1 -102 43 0
1 43 109 0
1 -43 -105 0
1 -43 -99 0
1 43 90 0
1 43 -110 0
1 -43 103 0
1 43 27 0
1 -43 -93 0
1 43 111 0
1 99 -109 0
1 99 29 0
1 99 -100 0
1 99 112 0
1 -99 -90 0
1 99 110 0
1 -99 102 0
1 -99 -103 0
1 -99 93 0
1 -46 -105 0
1 46 48 0
1 -46 -100 0
1 -46 90 0
1 -46 -110 0
1 -46 -101 0
1 46 103 0
1 46 -113 0
1 46 -93 0
1 48 109 0
1 48 -114 0
1 -48 -104 0
1 48 105 0
1 48 115 0
1 48 100 0
1 48 116 0
1 -48 46 0
1 -48 -102 0
1 -48 103 0
1 -48 -93 0
1 117 118 0
1 117 119 0
1 117 -120 0
1 -117 121 0
1 -117 -5 0
1 -119 -118 0
1 -119 121 0
1 -119 -117 0
1 56 -118 0
1 -56 122 0
1 56 120 0
1 56 121 0
1 123 -124 0
1 123 125 0
1 123 -126 0
1 123 121 0
1 -123 127 0
1 -121 -71 0
1 121 -118 0
1 -121 123 0
1 121 119 0
1 121 56 0
1 -121 117 0
1 118 -121 0
1 118 128 0
1 118 -64 0
1 -118 119 0
1 118 -65 0
1 118 -56 0
1 -118 -117 0
1 120 -129 0
1 120 -123 0
1 120 -56 0
1 120 117 0
1 124 119 0
1 124 -120 0
1 -124 56 0
1 68 -49 0
1 68 118 0
1 68 64 0
1 -68 125 0
1 68 122 0
1 68 -52 0
1 68 -23 0
1 68 -127 0
1 -68 126 0
1 -64 49 0
1 64 118 0
1 64 22 0
1 64 -122 0
1 -64 -52 0
1 64 121 0
1 -64 68 0
1 64 126 0
1 65 -130 0
1 -65 49 0
1 -65 71 0
1 65 -118 0
1 -65 -125 0
1 -65 122 0
1 65 131 0
1 65 -52 0
1 65 24 0
1 65 -121 0
1 -65 -127 0
1 -71 130 0
1 71 -49 0
1 -71 -118 0
1 -71 -125 0
1 71 -122 0
1 -71 131 0
1 71 -132 0
1 71 -52 0
1 71 127 0
1 71 -126 0
1 71 133 0
1 -126 -134 0
1 126 -80 0
1 126 61 0
1 -126 -71 0
1 126 64 0
1 -126 -123 0
1 -126 135 0
1 -126 -79 0
1 -126 -63 0
1 126 -65 0
1 -126 68 0
1 -126 56 0
1 -126 -136 0
1 122 -134 0
1 122 -80 0
1 -122 -61 0
1 -122 -71 0
1 122 -64 0
1 122 123 0
1 -122 137 0
1 -122 135 0
1 122 -63 0
1 122 126 0
1 -122 -65 0
1 127 -125 0
1 -127 123 0
1 -127 135 0
1 127 65 0
1 -127 -138 0
1 127 56 0
1 125 134 0
1 125 -71 0
1 -125 -123 0
1 125 -127 0
1 125 -135 0
1 -125 -65 0
1 -125 -68 0
1 125 -56 0
1 -63 130 0
1 -63 49 0
1 63 -50 0
1 63 -57 0
1 -63 -122 0
1 63 131 0
1 -63 52 0
1 63 -51 0
1 63 126 0
1 -61 49 0
1 61 57 0
1 -61 -122 0
1 -61 -131 0
1 -61 -132 0
1 61 -52 0
1 -61 -51 0
1 -61 126 0
1 -79 130 0
1 -79 -80 0
1 -79 -139 0
1 -79 -60 0
1 -79 57 0
1 -79 122 0
1 -79 -132 0
1 -79 66 0
1 -79 41 0
1 -79 -126 0
1 -79 133 0
1 80 130 0
1 -80 139 0
1 80 -60 0
1 80 -57 0
1 -80 -66 0
1 -80 79 0
1 -80 67 0
1 80 126 0
1 -80 133 0
1 -130 -77 0
1 130 -140 0
1 130 80 0
1 130 61 0
1 -130 -71 0
1 -130 141 0
1 130 -132 0
1 130 -79 0
1 -130 -65 0
1 -130 142 0
1 132 -130 0
1 -132 -80 0
1 132 61 0
1 132 71 0
1 -132 -87 0
1 -132 143 0
1 132 79 0
1 -132 -63 0
1 -132 -65 0
1 -132 -142 0
1 -132 -88 0
1 133 134 0
1 -133 80 0
1 -133 61 0
1 133 71 0
1 -133 -144 0
1 133 135 0
1 133 -79 0
1 133 63 0
1 133 65 0
1 -133 145 0
1 -131 134 0
1 131 -80 0
1 131 -61 0
1 -131 -146 0
1 -131 135 0
1 -131 63 0
1 131 -65 0
1 -131 -142 0
1 131 -133 0
1 -131 145 0
1 75 77 0
1 -75 139 0
1 75 -60 0
1 -75 57 0
1 -75 72 0
1 -75 -132 0
1 75 38 0
1 75 62 0
1 75 67 0
1 -75 -73 0
1 -77 -130 0
1 -77 -134 0
1 77 -139 0
1 -77 60 0
1 77 -57 0
1 77 58 0
1 -77 75 0
1 -77 62 0
1 77 -67 0
1 77 55 0
1 77 -32 0
1 87 130 0
1 87 78 0
1 -87 74 0
1 87 -72 0
1 -87 -45 0
1 -87 132 0
1 87 66 0
1 -87 -62 0
1 -87 73 0
1 -87 88 0
1 88 139 0
1 -88 60 0
1 88 74 0
1 -88 87 0
1 88 66 0
1 88 62 0
1 -88 81 0
1 88 -76 0
1 -88 73 0
1 88 47 0
1 88 145 0
1 -60 77 0
1 -60 80 0
1 60 147 0
1 60 84 0
1 60 87 0
1 -60 75 0
1 -60 -148 0
1 60 97 0
1 -60 -85 0
1 -60 88 0
1 -62 60 0
1 -62 -95 0
1 62 -84 0
1 -62 87 0
1 62 -51 0
1 -62 -97 0
1 62 -85 0
1 139 77 0
1 139 -49 0
1 -139 -80 0
1 139 149 0
1 139 -150 0
1 139 151 0
1 139 141 0
1 139 -75 0
1 139 66 0
1 139 79 0
1 -139 -148 0
1 139 152 0
1 -66 -77 0
1 -66 80 0
1 66 -139 0
1 66 150 0
1 66 -151 0
1 -66 -87 0
1 66 52 0
1 -66 153 0
1 -66 -152 0
1 -66 -88 0
1 -84 78 0
1 84 -72 0
1 -84 -42 0
1 84 69 0
1 -84 -62 0
1 84 -81 0
1 84 -85 0
1 -84 82 0
1 -85 -60 0
1 85 -78 0
1 85 -72 0
1 -85 -70 0
1 85 -84 0
1 85 83 0
1 -85 -62 0
1 -85 81 0
1 -85 76 0
1 85 73 0
1 -85 44 0
1 85 -142 0
1 95 60 0
1 -95 154 0
1 95 78 0
1 95 -90 0
1 -95 155 0
1 -95 -83 0
1 -95 -62 0
1 95 86 0
1 -95 -82 0
1 -97 -60 0
1 -97 78 0
1 97 156 0
1 97 155 0
1 97 62 0
1 97 -81 0
1 97 -76 0
1 -97 152 0
1 74 -76 0
1 -74 -58 0
1 74 89 0
1 74 157 0
1 74 -84 0
1 -74 -158 0
1 -74 107 0
1 -74 92 0
1 -74 -97 0
1 -74 -88 0
1 -76 -106 0
1 -76 74 0
1 -76 -84 0
1 76 87 0
1 76 -158 0
1 76 107 0
1 -76 -55 0
1 -76 -92 0
1 -76 159 0
1 76 -85 0
1 -76 -88 0
1 78 -160 0
1 78 -57 0
1 78 -161 0
1 -78 95 0
1 -78 84 0
1 -78 87 0
1 78 162 0
1 -78 -97 0
1 -78 -85 0
1 -81 160 0
1 81 -163 0
1 81 -161 0
1 -81 150 0
1 81 -84 0
1 -81 -158 0
1 81 162 0
1 -81 -97 0
1 -81 -85 0
1 81 88 0
1 89 -40 0
1 89 76 0
1 89 -150 0
1 -89 -156 0
1 -89 155 0
1 -89 18 0
1 -89 -39 0
1 -89 -92 0
1 -89 -154 0
1 89 86 0
1 89 82 0
1 92 89 0
1 -92 -156 0
1 -92 -155 0
1 92 -18 0
1 92 -103 0
1 -92 148 0
1 -92 154 0
1 -106 -94 0
1 -106 40 0
1 -106 -105 0
1 106 -161 0
1 -106 74 0
1 106 -156 0
1 106 155 0
1 -106 96 0
1 106 -91 0
1 -106 39 0
1 -106 -107 0
1 106 86 0
1 107 -106 0
1 -107 74 0
1 107 156 0
1 107 -155 0
1 107 -91 0
1 -107 -39 0
1 107 -162 0
1 107 76 0
1 -107 154 0
1 107 86 0
1 155 -164 0
1 155 -104 0
1 155 -106 0
1 155 -95 0
1 -155 -69 0
1 155 165 0
1 -155 166 0
1 155 116 0
1 155 -101 0
1 155 -107 0
1 -155 -92 0
1 -155 -97 0
1 -86 -164 0
1 -86 -104 0
1 -86 -106 0
1 -86 89 0
1 86 95 0
1 -86 -155 0
1 86 166 0
1 -86 -116 0
1 -86 70 0
1 -86 -167 0
1 -156 -164 0
1 -156 -160 0
1 -156 -154 0
1 -156 -89 0
1 -156 95 0
1 156 168 0
1 -156 166 0
1 156 169 0
1 -156 -107 0
1 -156 92 0
1 154 164 0
1 -154 160 0
1 -154 -89 0
1 -154 95 0
1 154 156 0
1 154 -166 0
1 -154 107 0
1 154 92 0
1 154 -73 0
1 154 97 0
1 -154 170 0
1 104 94 0
1 -104 35 0
1 -104 160 0
1 -104 48 0
1 -104 155 0
1 104 91 0
1 -104 101 0
1 -104 31 0
1 -104 -46 0
1 104 86 0
1 104 -98 0
1 -101 94 0
1 101 -104 0
1 101 -35 0
1 -101 -48 0
1 -101 155 0
1 -101 91 0
1 -101 -39 0
1 -101 158 0
1 101 -31 0
1 -101 86 0
1 114 -94 0
1 -114 -48 0
1 114 -155 0
1 -114 -116 0
1 114 -91 0
1 114 171 0
1 114 86 0
1 114 -98 0
1 -116 94 0
1 -116 -108 0
1 -116 -172 0
1 -116 48 0
1 116 155 0
1 -116 -91 0
1 116 171 0
1 -116 -173 0
1 116 -46 0
1 -116 -86 0
1 91 -109 0
1 91 -94 0
1 -91 114 0
1 -91 -104 0
1 -91 -106 0
1 -91 174 0
1 91 110 0
1 91 18 0
1 91 -175 0
1 -94 21 0
1 -94 -114 0
1 -94 104 0
1 -94 106 0
1 -94 174 0
1 -94 -176 0
1 -94 -110 0
1 94 116 0
1 -94 -107 0
1 94 -175 0
1 94 -177 0
1 96 -164 0
1 -96 114 0
1 96 -104 0
1 96 106 0
1 -96 178 0
1 96 -83 0
1 -96 -166 0
1 -96 -116 0
1 96 175 0
1 96 -98 0
1 -96 -179 0
1 -98 -114 0
1 -98 104 0
1 -98 106 0
1 -98 174 0
1 98 178 0
1 -98 -116 0
1 -98 96 0
1 98 101 0
1 98 107 0
1 -98 175 0
1 98 -82 0
1 -98 -179 0
1 109 164 0
1 109 -94 0
1 109 48 0
1 -109 -99 0
1 109 91 0
1 -109 -171 0
1 -109 173 0
1 -109 -46 0
1 109 -43 0
1 110 108 0
1 -110 -48 0
1 110 166 0
1 110 91 0
1 -110 171 0
1 110 -173 0
1 110 43 0
1 177 108 0
1 -177 112 0
1 -177 -91 0
1 -177 -113 0
1 176 94 0
1 -176 -108 0
1 -176 -115 0
1 176 91 0
1 -176 171 0
1 -176 173 0
1 176 -113 0
1 176 177 0
1 173 109 0
1 -173 -114 0
1 -173 172 0
1 -173 180 0
1 -173 -181 0
1 173 116 0
1 173 31 0
1 -173 -182 0
1 172 109 0
1 172 114 0
1 172 -180 0
1 172 181 0
1 172 176 0
1 172 -110 0
1 -172 -173 0
1 -172 -177 0
1 171 -176 0
1 -171 110 0
1 171 116 0
1 -171 39 0
1 -171 -183 0
1 -171 175 0
1 -171 -177 0
1 108 114 0
1 108 40 0
1 108 184 0
1 -108 -176 0
1 108 -110 0
1 108 -116 0
1 -108 -171 0
1 -108 183 0
1 108 175 0
1 108 -177 0
1 -185 115 0
1 -185 112 0
1 -185 -181 0
1 185 -173 0
1 185 -113 0
1 185 111 0
1 181 115 0
1 181 -112 0
1 -181 174 0
1 181 173 0
1 -181 113 0
1 181 -185 0
1 182 -172 0
1 182 115 0
1 182 -112 0
1 182 -173 0
1 -182 -113 0
1 182 -183 0
1 -180 111 0
1 -180 172 0
1 -180 -184 0
1 -180 182 0
1 -111 112 0
1 -111 181 0
1 111 176 0
1 111 43 0
1 -111 182 0
1 -111 -185 0
1 112 180 0
1 -112 181 0
1 112 -176 0
1 112 182 0
1 -112 185 0
1 113 -115 0
1 113 180 0
1 113 -176 0
1 -113 -46 0
1 -113 -177 0
1 115 -48 0
1 -115 180 0
1 115 181 0
1 115 -176 0
1 115 113 0
1 115 -185 0
1 115 177 0
1 135 134 0
1 135 -186 0
1 -135 128 0
1 -135 125 0
1 -135 122 0
1 135 -75 0
1 135 129 0
1 -135 -187 0
1 -135 -127 0
1 -135 133 0
1 134 77 0
1 134 -186 0
1 -134 -128 0
1 -134 -122 0
1 -134 -131 0
1 -134 -135 0
1 -134 -127 0
1 -144 -186 0
1 144 -128 0
1 144 137 0
1 -144 131 0
1 -144 -87 0
1 -144 129 0
1 144 187 0
1 -144 -138 0
1 -144 -136 0
1 -144 -145 0
1 -145 128 0
1 -145 137 0
1 145 131 0
1 -145 129 0
1 -145 -187 0
1 -145 138 0
1 -145 136 0
1 -145 -88 0
1 -187 134 0
1 -187 128 0
1 187 -151 0
1 187 188 0
1 187 -144 0
1 187 -135 0
1 187 -142 0
1 -128 134 0
1 -128 118 0
1 128 189 0
1 128 -151 0
1 128 -144 0
1 -128 135 0
1 128 187 0
1 128 142 0
1 128 -145 0
1 129 -134 0
1 129 -186 0
1 -129 135 0
1 129 120 0
1 129 -145 0
1 186 -124 0
1 -186 -144 0
1 -186 -135 0
1 186 -145 0
1 -141 -130 0
1 141 139 0
1 141 -128 0
1 141 84 0
1 141 -132 0
1 141 66 0
1 141 -187 0
1 141 138 0
1 -141 136 0
1 -141 -142 0
1 141 -133 0
1 -142 130 0
1 -142 -139 0
1 142 -137 0
1 142 -131 0
1 142 141 0
1 -142 66 0
1 -142 -187 0
1 142 -136 0
1 -151 -139 0
1 -151 -190 0
1 -151 66 0
1 151 -138 0
1 -151 -187 0
1 151 -152 0
1 -151 136 0
1 -152 140 0
1 152 -139 0
1 152 -190 0
1 152 137 0
1 -152 -146 0
1 152 -66 0
1 -152 -187 0
1 -152 -97 0
1 152 138 0
1 152 -136 0
1 136 191 0
1 136 161 0
1 136 150 0
1 -136 151 0
1 -136 -137 0
1 136 141 0
1 -136 -144 0
1 -136 -192 0
1 136 152 0
1 -136 142 0
1 -136 -193 0
1 -136 -145 0
1 137 161 0
1 137 150 0
1 137 -122 0
1 -137 -151 0
1 137 144 0
1 137 192 0
1 137 152 0
1 -137 -145 0
1 138 -191 0
1 -138 -151 0
1 138 -141 0
1 138 127 0
1 138 144 0
1 138 192 0
1 138 -145 0
1 190 191 0
1 -190 -151 0
1 190 -194 0
1 190 141 0
1 -190 144 0
1 -190 -192 0
1 -190 -152 0
1 190 -142 0
1 -190 145 0
1 150 140 0
1 150 139 0
1 -150 62 0
1 -150 -81 0
1 150 -136 0
1 150 195 0
1 -148 -140 0
1 -148 139 0
1 -148 150 0
1 148 146 0
1 148 143 0
1 148 66 0
1 148 -136 0
1 -148 195 0
1 -161 -149 0
1 161 -147 0
1 161 -137 0
1 -161 -146 0
1 -161 143 0
1 161 -153 0
1 161 -196 0
1 -161 81 0
1 -161 -162 0
1 -161 -136 0
1 -162 147 0
1 162 146 0
1 -162 143 0
1 162 -153 0
1 -162 -81 0
1 -162 -107 0
1 -162 136 0
1 162 -195 0
1 -140 130 0
1 140 -197 0
1 140 198 0
1 140 -160 0
1 -140 -150 0
1 -140 -199 0
1 -140 169 0
1 140 -158 0
1 -140 -162 0
1 -140 148 0
1 140 152 0
1 143 140 0
1 -143 -197 0
1 -143 198 0
1 -143 -150 0
1 143 -169 0
1 143 -200 0
1 143 158 0
1 195 201 0
1 -195 202 0
1 195 -161 0
1 -195 -150 0
1 195 151 0
1 -195 -146 0
1 195 -203 0
1 195 -192 0
1 -195 -162 0
1 -195 148 0
1 -195 -152 0
1 -195 133 0
1 146 202 0
1 -146 161 0
1 146 -150 0
1 146 -151 0
1 146 -131 0
1 -146 204 0
1 146 -199 0
1 146 203 0
1 146 -192 0
1 146 152 0
1 160 -140 0
1 -160 104 0
1 -160 -149 0
1 -160 -191 0
1 160 78 0
1 160 -147 0
1 -160 74 0
1 -160 156 0
1 160 -143 0
1 160 153 0
1 160 -158 0
1 -160 81 0
1 160 76 0
1 160 -154 0
1 158 140 0
1 158 160 0
1 -158 -147 0
1 158 -78 0
1 158 -156 0
1 -158 143 0
1 158 153 0
1 -158 -192 0
1 -158 81 0
1 -158 196 0
1 -158 76 0
1 158 -154 0
1 198 -114 0
1 198 202 0
1 -198 -149 0
1 198 147 0
1 -198 -205 0
1 -198 -157 0
1 -198 -156 0
1 -198 -143 0
1 198 169 0
1 198 159 0
1 -198 -154 0
1 -169 140 0
1 169 -198 0
1 169 149 0
1 169 147 0
1 -169 -205 0
1 169 157 0
1 169 156 0
1 169 -143 0
1 -169 -116 0
1 169 -203 0
1 169 -153 0
1 -169 196 0
1 -169 -163 0
1 -169 -154 0
1 -147 -164 0
1 -147 -160 0
1 -147 161 0
1 147 206 0
1 -147 -178 0
1 -147 166 0
1 -147 -169 0
1 -147 -158 0
1 147 -179 0
1 -196 -164 0
1 -196 -198 0
1 196 -160 0
1 -196 -161 0
1 -196 166 0
1 196 169 0
1 196 -158 0
1 196 62 0
1 196 162 0
1 -149 -207 0
1 -149 197 0
1 149 198 0
1 -149 -161 0
1 -149 -206 0
1 -149 208 0
1 -149 199 0
1 149 158 0
1 -149 -162 0
1 -153 -207 0
1 153 197 0
1 153 -198 0
1 153 -149 0
1 -153 -160 0
1 153 208 0
1 -153 -169 0
1 153 66 0
1 153 158 0
1 -153 162 0
1 164 -109 0
1 -164 -197 0
1 164 -147 0
1 -164 156 0
1 -164 -159 0
1 -164 154 0
1 164 86 0
1 -164 -98 0
1 166 -147 0
1 166 -156 0
1 -166 155 0
1 166 110 0
1 166 -199 0
1 -166 196 0
1 -166 -163 0
1 166 159 0
1 -166 -154 0
1 179 -207 0
1 -179 -205 0
1 179 -157 0
1 -179 168 0
1 -179 178 0
1 -179 -196 0
1 -179 163 0
1 179 159 0
1 179 -170 0
1 -179 167 0
1 -179 177 0
1 -178 147 0
1 178 -205 0
1 178 -157 0
1 178 -179 0
1 178 165 0
1 178 -208 0
1 178 196 0
1 -178 -163 0
1 178 159 0
1 178 -167 0
1 -157 164 0
1 157 198 0
1 157 -159 0
1 -157 -74 0
1 157 184 0
1 -157 174 0
1 -157 -178 0
1 -157 166 0
1 -157 169 0
1 -157 175 0
1 157 179 0
1 159 -184 0
1 159 -157 0
1 159 178 0
1 -159 -166 0
1 159 -169 0
1 -159 -76 0
1 -159 -175 0
1 205 164 0
1 205 -198 0
1 205 -209 0
1 -205 206 0
1 205 -178 0
1 205 -163 0
1 205 210 0
1 -205 179 0
1 -163 -164 0
1 -163 198 0
1 163 -209 0
1 -163 -206 0
1 163 -178 0
1 -163 169 0
1 163 -81 0
1 -163 179 0
1 175 94 0
1 175 108 0
1 175 157 0
1 -175 174 0
1 -175 -165 0
1 175 -96 0
1 175 159 0
1 175 185 0
1 175 98 0
1 174 94 0
1 174 -108 0
1 -174 -157 0
1 174 -181 0
1 -174 -206 0
1 174 -165 0
1 174 91 0
1 -174 159 0
1 174 -175 0
1 174 98 0
1 183 -168 0
1 183 -171 0
1 -183 182 0
1 183 210 0
1 183 -167 0
1 184 -180 0
1 -184 -168 0
1 -184 -170 0
1 -184 -165 0
1 184 -159 0
1 184 183 0
1 -165 -184 0
1 165 -174 0
1 -165 -178 0
1 -165 -167 0
1 -165 175 0
1 -165 179 0
1 167 -184 0
1 -167 174 0
1 167 -165 0
1 -167 86 0
1 167 179 0
1 168 -179 0
1 -170 184 0
1 170 -174 0
1 170 -178 0
1 170 -154 0
1 170 183 0
1 -191 160 0
1 191 -189 0
1 191 -190 0
1 191 146 0
1 -191 -192 0
1 -191 211 0
1 -191 188 0
1 -191 138 0
1 191 195 0
1 -192 191 0
1 -192 212 0
1 -192 137 0
1 192 -146 0
1 -192 158 0
1 -192 -211 0
1 192 188 0
1 192 -138 0
1 -202 -198 0
1 -202 -212 0
1 -202 -189 0
1 -202 213 0
1 202 -211 0
1 -202 188 0
1 202 -214 0
1 202 193 0
1 -202 -195 0
1 -203 202 0
1 203 -212 0
1 203 -189 0
1 -203 169 0
1 203 -211 0
1 203 214 0
1 203 193 0
1 -203 195 0
1 188 -207 0
1 -188 -197 0
1 -188 202 0
1 188 191 0
1 188 -203 0
1 -188 -192 0
1 -188 187 0
1 189 197 0
1 -189 -202 0
1 -189 -128 0
1 -189 208 0
1 189 -203 0
1 -211 202 0
1 -211 -212 0
1 -211 -203 0
1 -212 -202 0
1 -212 -186 0
1 -212 203 0
1 212 -192 0
1 -197 140 0
1 -197 149 0
1 197 189 0
1 -197 194 0
1 197 146 0
1 197 -143 0
1 197 199 0
1 197 -153 0
1 -197 -188 0
1 197 214 0
1 197 193 0
1 -199 -197 0
1 -199 -149 0
1 -199 189 0
1 199 -194 0
1 -199 -166 0
1 -199 143 0
1 199 153 0
1 -199 -214 0
1 199 193 0
1 207 -201 0
1 207 -215 0
1 207 149 0
1 207 189 0
1 207 -208 0
1 207 188 0
1 -207 -214 0
1 207 -193 0
1 -207 -179 0
1 208 -207 0
1 208 201 0
1 208 215 0
1 -208 -149 0
1 -208 -189 0
1 -208 -213 0
1 208 -178 0
1 208 -204 0
1 -208 -188 0
1 -208 -214 0
1 208 193 0
1 -193 197 0
1 193 209 0
1 -193 206 0
1 -193 213 0
1 -193 -208 0
1 193 203 0
1 -193 210 0
1 193 -136 0
1 -213 207 0
1 -213 197 0
1 -213 -137 0
1 213 -206 0
1 -213 199 0
1 213 203 0
1 -213 -210 0
1 213 -193 0
1 -214 -207 0
1 -214 -197 0
1 -214 194 0
1 214 208 0
1 -214 -138 0
1 194 207 0
1 194 197 0
1 -194 -202 0
1 194 -199 0
1 194 -203 0
1 194 -214 0
1 206 201 0
1 -206 215 0
1 -206 147 0
1 206 205 0
1 -206 213 0
1 206 200 0
1 206 -163 0
1 206 193 0
1 210 209 0
1 -210 213 0
1 -210 -204 0
1 -210 -200 0
1 -210 -183 0
1 209 -201 0
1 -209 215 0
1 209 -205 0
1 -209 184 0
1 209 -213 0
1 -209 200 0
1 209 -210 0
1 -209 -193 0
1 215 -200 0
1 215 210 0
1 200 -215 0
1 200 -209 0
1 200 -206 0
1 200 -210 0
1 201 207 0
1 -201 209 0
1 201 208 0
1 -201 -195 0
1 204 -207 0
1 204 -209 0
1 204 206 0
1 -204 -146 0
1 -204 -208 0
1 204 210 0
